unsat
( _c0
  _c104
  _c105
  _c1357
  _c1432
  _c1435
  _c1436
  _c1437
  _c1440
  _c1441
  _c1443
  _c1595
  _c1596
  _c1597
  _c1599
  _c1603
  _c1759
  _c1761
  _c1828
  _c1829
  _c1837
  _c2190
  _c2198
  _c2199
  _c2200
  _c2202
  _c2350
  _c2351
  _c28
  _c29
  _c30
  _c32 )
